
  12    4
  10   10   10   10

   0   0   0   0   0   3 2 3 5 
   6  10  10  10  10   2 11 4 
  10  10  10  10  10   3 11 8 6 
   1  10  10  10  10   2 7 6 
   5  10  10  10  10   3 11 10 9 
   9  10  10  10  10   2 10 9 
   1  10  10  10  10   1 10 
   1  10  10  10  10   1 9 
   5  10  10  10  10   1 12
   3  10  10  10  10   1 12
   8  10  10  10  10   1 12
   0   0   0   0   0   0 
